17	4
10	10	11	19	
0	0	0	0	0	3	2	3	4	
5	0	0	8	0	3	5	6	7	
6	0	0	0	5	3	8	17	17	
8	5	0	0	0	3	11	16	17	
6	0	0	0	4	2	9	17	
125	0	0	4	0	1	17	
100	0	0	1	0	2	17	17	
150	0	0	6	0	3	10	15	17	
125	0	3	0	0	3	12	13	14	
200	0	0	0	3	1	11	
250	0	0	0	1	1	17	
200	0	0	0	8	1	17	
9	0	0	0	4	3	16	17	17	
7	0	0	0	1	2	17	17	
3	0	0	2	0	3	16	17	17	
9	0	0	1	0	3	17	17	17	
0	0	0	0	0	0	
